
Gurobi 9.5.2 (mac64[arm]) logging started Mon May  1 22:43:28 2023

Set parameter LogFile to value "Java/output/special_iterative/scenario_seed_1_nJob_50_machineCount_2/mip_increment_2/log.txt"
Gurobi Optimizer version 9.5.2 build v9.5.2rc0 (mac64[arm])
Thread count: 8 physical cores, 8 logical processors, using up to 8 threads
Optimize a model with 1328 rows, 9984 columns and 66548 nonzeros
Model fingerprint: 0xb182f0f5
Variable types: 0 continuous, 9984 integer (9984 binary)
Coefficient statistics:
  Matrix range     [1e+00, 2e+02]
  Objective range  [6e+01, 3e+06]
  Bounds range     [1e+00, 1e+00]
  RHS range        [1e+00, 1e+00]
Found heuristic solution: objective 7867104.0000
Presolve removed 68 rows and 934 columns
Presolve time: 0.07s
Presolved: 1260 rows, 9050 columns, 59660 nonzeros
Variable types: 0 continuous, 9050 integer (9046 binary)
Found heuristic solution: objective 7594528.0000

Root relaxation: objective 8.850571e+03, 1805 iterations, 0.07 seconds (0.15 work units)

    Nodes    |    Current Node    |     Objective Bounds      |     Work
 Expl Unexpl |  Obj  Depth IntInf | Incumbent    BestBd   Gap | It/Node Time

     0     0 8850.57119    0  145 7594528.00 8850.57119   100%     -    0s
H    0     0                    2987824.0000 8850.57119   100%     -    0s
H    0     0                    481216.00000 8850.57119  98.2%     -    0s
H    0     0                    12544.000000 8850.57119  29.4%     -    0s
H    0     0                    11248.000000 8869.61135  21.1%     -    0s
H    0     0                    10768.000000 8869.61135  17.6%     -    0s
     0     0 8869.61135    0  183 10768.0000 8869.61135  17.6%     -    0s
H    0     0                    9936.0000000 8869.61135  10.7%     -    0s
     0     0 8916.02313    0  205 9936.00000 8916.02313  10.3%     -    0s
     0     0 8916.02313    0  139 9936.00000 8916.02313  10.3%     -    0s
H    0     0                    9904.0000000 8916.02313  10.0%     -    0s
     0     0 8916.02313    0  182 9904.00000 8916.02313  10.0%     -    0s
     0     0 8916.02313    0  184 9904.00000 8916.02313  10.0%     -    1s
     0     0 8916.02313    0  206 9904.00000 8916.02313  10.0%     -    1s
     0     0 8917.22933    0  224 9904.00000 8917.22933  10.0%     -    1s
     0     0 8939.93492    0  214 9904.00000 8939.93492  9.73%     -    1s
     0     0 8941.18832    0  223 9904.00000 8941.18832  9.72%     -    1s
     0     0 8942.60223    0  227 9904.00000 8942.60223  9.71%     -    1s
     0     0 8942.86868    0  225 9904.00000 8942.86868  9.70%     -    1s
     0     0 8942.87816    0  227 9904.00000 8942.87816  9.70%     -    1s
H    0     0                    9776.0000000 8942.87816  8.52%     -    1s
     0     0 8971.12940    0  241 9776.00000 8971.12940  8.23%     -    1s
H    0     0                    9744.0000000 8971.12940  7.93%     -    1s
     0     0 8974.07651    0  250 9744.00000 8974.07651  7.90%     -    1s
     0     0 8975.01175    0  269 9744.00000 8975.01175  7.89%     -    1s
     0     0 8975.67071    0  275 9744.00000 8975.67071  7.89%     -    1s
     0     0 8975.70289    0  262 9744.00000 8975.70289  7.88%     -    1s
H    0     0                    9712.0000000 8975.70289  7.58%     -    1s
     0     0 8985.51210    0  249 9712.00000 8985.51210  7.48%     -    1s
     0     0 8990.52453    0  266 9712.00000 8990.52453  7.43%     -    1s
     0     0 8992.39989    0  264 9712.00000 8992.39989  7.41%     -    1s
     0     0 8993.79283    0  282 9712.00000 8993.79283  7.40%     -    1s
     0     0 8994.15559    0  293 9712.00000 8994.15559  7.39%     -    1s
     0     0 8994.54691    0  301 9712.00000 8994.54691  7.39%     -    1s
     0     0 8994.76607    0  306 9712.00000 8994.76607  7.39%     -    1s
     0     0 8994.78511    0  305 9712.00000 8994.78511  7.38%     -    1s
     0     0 8998.21301    0  290 9712.00000 8998.21301  7.35%     -    2s
H    0     0                    9680.0000000 8998.21301  7.04%     -    2s
     0     0 8999.42991    0  304 9680.00000 8999.42991  7.03%     -    2s
     0     0 8999.82595    0  310 9680.00000 8999.82595  7.03%     -    2s
     0     0 8999.88837    0  307 9680.00000 8999.88837  7.03%     -    2s
     0     0 9004.33803    0  299 9680.00000 9004.33803  6.98%     -    2s
H    0     0                    9648.0000000 9004.33803  6.67%     -    2s
     0     0 9007.40125    0  294 9648.00000 9007.40125  6.64%     -    2s
     0     0 9008.86613    0  296 9648.00000 9008.86613  6.62%     -    2s
     0     0 9009.60203    0  305 9648.00000 9009.60203  6.62%     -    2s
     0     0 9009.73164    0  306 9648.00000 9009.73164  6.62%     -    2s
     0     0 9009.79919    0  299 9648.00000 9009.79919  6.61%     -    2s
     0     0 9013.02261    0  298 9648.00000 9013.02261  6.58%     -    2s
     0     0 9013.76922    0  319 9648.00000 9013.76922  6.57%     -    2s
     0     0 9014.43922    0  318 9648.00000 9014.43922  6.57%     -    2s
     0     0 9014.96304    0  313 9648.00000 9014.96304  6.56%     -    2s
     0     0 9015.08540    0  321 9648.00000 9015.08540  6.56%     -    2s
     0     0 9016.88837    0  332 9648.00000 9016.88837  6.54%     -    2s
     0     0 9017.33358    0  329 9648.00000 9017.33358  6.54%     -    2s
     0     0 9017.43604    0  334 9648.00000 9017.43604  6.54%     -    2s
H    0     0                    9552.0000000 9017.43604  5.60%     -    2s
     0     0 9018.65941    0  334 9552.00000 9018.65941  5.58%     -    2s
     0     0 9019.00233    0  319 9552.00000 9019.00233  5.58%     -    2s
     0     0 9019.12042    0  326 9552.00000 9019.12042  5.58%     -    2s
H    0     0                    9424.0000000 9019.12042  4.30%     -    2s
     0     0 9019.55421    0  327 9424.00000 9019.55421  4.29%     -    2s
     0     0 9019.55421    0  313 9424.00000 9019.55421  4.29%     -    2s
     0     0 9019.55421    0  141 9424.00000 9019.55421  4.29%     -    3s
     0     0 9019.55421    0  205 9424.00000 9019.55421  4.29%     -    3s
H    0     0                    9392.0000000 9019.55421  3.97%     -    3s
     0     0 9019.55421    0  246 9392.00000 9019.55421  3.97%     -    3s
     0     0 9019.55421    0  272 9392.00000 9019.55421  3.97%     -    3s
     0     0 9019.55421    0  260 9392.00000 9019.55421  3.97%     -    3s
H    0     0                    9360.0000000 9019.55421  3.64%     -    3s
     0     0 9019.55421    0  298 9360.00000 9019.55421  3.64%     -    3s
     0     0 9019.55421    0  295 9360.00000 9019.55421  3.64%     -    3s
     0     0 9019.55421    0  304 9360.00000 9019.55421  3.64%     -    3s
     0     0 9019.55421    0  307 9360.00000 9019.55421  3.64%     -    3s
     0     0 9019.55421    0  307 9360.00000 9019.55421  3.64%     -    3s
     0     0 9019.73738    0  327 9360.00000 9019.73738  3.64%     -    3s
     0     0 9019.79656    0  327 9360.00000 9019.79656  3.63%     -    3s
     0     0 9022.08072    0  321 9360.00000 9022.08072  3.61%     -    3s
     0     0 9022.79420    0  324 9360.00000 9022.79420  3.60%     -    4s
     0     0 9023.16005    0  337 9360.00000 9023.16005  3.60%     -    4s
     0     0 9023.28902    0  307 9360.00000 9023.28902  3.60%     -    4s
     0     0 9023.88200    0  327 9360.00000 9023.88200  3.59%     -    4s
     0     0 9024.01997    0  332 9360.00000 9024.01997  3.59%     -    4s
     0     0 9024.21532    0  327 9360.00000 9024.21532  3.59%     -    4s
     0     0 9024.21532    0  317 9360.00000 9024.21532  3.59%     -    4s
     0     2 9024.21532    0  317 9360.00000 9024.21532  3.59%     -    4s
    31    40 9044.48811    5  274 9360.00000 9037.28814  3.45%   495    5s
H   35    40                    9264.0000000 9037.28814  2.45%   471    5s
H   70    78                    9232.0000000 9037.30324  2.11%   447    5s
H  196   182                    9120.0000000 9037.30324  0.91%   403    6s
  1781   115 9119.25909   16  254 9120.00000 9101.57778  0.20%   228   10s

Cutting planes:
  Gomory: 2
  Cover: 18
  Clique: 51
  MIR: 118
  StrongCG: 34
  GUB cover: 78
  Inf proof: 2
  Zero half: 15
  RLT: 18

Explored 1913 nodes (447964 simplex iterations) in 10.06 seconds (22.40 work units)
Thread count was 8 (of 8 available processors)

Solution count 10: 9120 9232 9264 ... 9712

Optimal solution found (tolerance 1.00e-04)
Best objective 9.120000000000e+03, best bound 9.120000000000e+03, gap 0.0000%

Gurobi 9.5.2 (mac64[arm]) logging started Mon May  1 22:43:38 2023

Set parameter LogFile to value "Java/output/special_iterative/scenario_seed_1_nJob_50_machineCount_2/mip_increment_2/log.txt"
Gurobi Optimizer version 9.5.2 build v9.5.2rc0 (mac64[arm])
Thread count: 8 physical cores, 8 logical processors, using up to 8 threads
Optimize a model with 1334 rows, 8445 columns and 61895 nonzeros
Model fingerprint: 0x6df90208
Variable types: 0 continuous, 8445 integer (8445 binary)
Coefficient statistics:
  Matrix range     [1e+00, 2e+02]
  Objective range  [1e+02, 1e+06]
  Bounds range     [1e+00, 1e+00]
  RHS range        [1e+00, 1e+00]
Presolve removed 333 rows and 1010 columns
Presolve time: 0.07s
Presolved: 1001 rows, 7435 columns, 53556 nonzeros
Variable types: 0 continuous, 7435 integer (7431 binary)

Root relaxation: objective 1.622582e+05, 1597 iterations, 0.04 seconds (0.08 work units)

    Nodes    |    Current Node    |     Objective Bounds      |     Work
 Expl Unexpl |  Obj  Depth IntInf | Incumbent    BestBd   Gap | It/Node Time

     0     0 162258.213    0   81          - 162258.213      -     -    0s
H    0     0                    1831852.0000 162258.213  91.1%     -    0s
H    0     0                    1247920.0000 162258.213  87.0%     -    0s
H    0     0                    828796.00000 162258.213  80.4%     -    0s
H    0     0                    460040.00000 162258.213  64.7%     -    0s
H    0     0                    460032.00000 162308.480  64.7%     -    0s
H    0     0                    460016.00000 162308.480  64.7%     -    0s
H    0     0                    280300.00000 162308.480  42.1%     -    0s
     0     0 162308.480    0  112 280300.000 162308.480  42.1%     -    0s
H    0     0                    280288.00000 162308.480  42.1%     -    0s
H    0     0                    280000.00000 162308.480  42.0%     -    0s
     0     0 162327.716    0  148 280000.000 162327.716  42.0%     -    0s
     0     0 162327.716    0   87 280000.000 162327.716  42.0%     -    0s
H    0     0                    263560.00000 162327.716  38.4%     -    0s
H    0     0                    212348.00000 162327.716  23.6%     -    0s
     0     0 162327.716    0  142 212348.000 162327.716  23.6%     -    0s
H    0     0                    212332.00000 162327.716  23.6%     -    0s
     0     0 162328.793    0  148 212332.000 162328.793  23.5%     -    0s
     0     0 162329.362    0  153 212332.000 162329.362  23.5%     -    0s
     0     0 162329.374    0  153 212332.000 162329.374  23.5%     -    0s
     0     0 162347.500    0  187 212332.000 162347.500  23.5%     -    0s
     0     0 162349.548    0  191 212332.000 162349.548  23.5%     -    0s
     0     0 162349.727    0  193 212332.000 162349.727  23.5%     -    0s
     0     0 162349.765    0  197 212332.000 162349.765  23.5%     -    0s
H    0     0                    167440.00000 162349.765  3.04%     -    1s
H    0     0                    167388.00000 162349.765  3.01%     -    1s
H    0     0                    166832.00000 162349.765  2.69%     -    1s
     0     0 162390.845    0  198 166832.000 162390.845  2.66%     -    1s
     0     0 162390.845    0   83 166832.000 162390.845  2.66%     -    1s
H    0     0                    166828.00000 162390.845  2.66%     -    1s
     0     0 162390.845    0  157 166828.000 162390.845  2.66%     -    1s
     0     0 162390.845    0  158 166828.000 162390.845  2.66%     -    1s
     0     0 162406.713    0  175 166828.000 162406.713  2.65%     -    1s
H    0     0                    166820.00000 162406.713  2.65%     -    1s
     0     0 162408.901    0  165 166820.000 162408.901  2.64%     -    1s
     0     0 162409.400    0  161 166820.000 162409.400  2.64%     -    1s
     0     0 162409.400    0  160 166820.000 162409.400  2.64%     -    1s
H    0     0                    166788.00000 162409.400  2.63%     -    1s
     0     0 162431.008    0  187 166788.000 162431.008  2.61%     -    1s
     0     0 162433.401    0  194 166788.000 162433.401  2.61%     -    1s
     0     0 162433.702    0  199 166788.000 162433.702  2.61%     -    1s
     0     0 162433.743    0  198 166788.000 162433.743  2.61%     -    1s
H    0     0                    166780.00000 162433.743  2.61%     -    1s
     0     0 162442.560    0  209 166780.000 162442.560  2.60%     -    1s
H    0     0                    166772.00000 162442.560  2.60%     -    1s
     0     0 162452.234    0  199 166772.000 162452.234  2.59%     -    1s
     0     0 162454.664    0  203 166772.000 162454.664  2.59%     -    1s
     0     0 162455.142    0  212 166772.000 162455.142  2.59%     -    1s
     0     0 162455.289    0  216 166772.000 162455.289  2.59%     -    1s
     0     0 162455.293    0  219 166772.000 162455.293  2.59%     -    1s
H    0     0                    164196.00000 162455.293  1.06%     -    1s
     0     0 162459.282    0  223 164196.000 162459.282  1.06%     -    1s
H    0     0                    164132.00000 162459.282  1.02%     -    1s
     0     0 162461.973    0  220 164132.000 162461.973  1.02%     -    1s
     0     0 162462.670    0  226 164132.000 162462.670  1.02%     -    1s
     0     0 162462.879    0  225 164132.000 162462.879  1.02%     -    1s
     0     0 162463.016    0  226 164132.000 162463.016  1.02%     -    1s
*    0     0               0    162464.00000 162464.000  0.00%     -    1s

Cutting planes:
  Gomory: 5
  Cover: 4
  Clique: 20
  MIR: 57
  StrongCG: 19
  GUB cover: 68
  Inf proof: 1
  Zero half: 5
  RLT: 14

Explored 1 nodes (15800 simplex iterations) in 1.85 seconds (2.41 work units)
Thread count was 8 (of 8 available processors)

Solution count 10: 162464 164132 164196 ... 166832

Optimal solution found (tolerance 1.00e-04)
Best objective 1.624640000000e+05, best bound 1.624640000000e+05, gap 0.0000%

Gurobi 9.5.2 (mac64[arm]) logging started Mon May  1 22:43:40 2023

Set parameter LogFile to value "Java/output/special_iterative/scenario_seed_1_nJob_50_machineCount_2/mip_increment_2/log.txt"
Gurobi Optimizer version 9.5.2 build v9.5.2rc0 (mac64[arm])
Thread count: 8 physical cores, 8 logical processors, using up to 8 threads
Optimize a model with 1340 rows, 5949 columns and 43696 nonzeros
Model fingerprint: 0x1ac8aa86
Variable types: 0 continuous, 5949 integer (5949 binary)
Coefficient statistics:
  Matrix range     [1e+00, 2e+02]
  Objective range  [1e+02, 3e+05]
  Bounds range     [1e+00, 1e+00]
  RHS range        [1e+00, 1e+00]
Presolve removed 650 rows and 910 columns
Presolve time: 0.05s
Presolved: 690 rows, 5039 columns, 36967 nonzeros
Variable types: 0 continuous, 5039 integer (5039 binary)

Root relaxation: objective 1.942617e+05, 2159 iterations, 0.07 seconds (0.11 work units)

    Nodes    |    Current Node    |     Objective Bounds      |     Work
 Expl Unexpl |  Obj  Depth IntInf | Incumbent    BestBd   Gap | It/Node Time

     0     0 194261.748    0  178          - 194261.748      -     -    0s
H    0     0                    757377.00000 194261.748  74.4%     -    0s
H    0     0                    591307.00000 194261.748  67.1%     -    0s
H    0     0                    537660.00000 194261.748  63.9%     -    0s
H    0     0                    407626.00000 196534.915  51.8%     -    0s
H    0     0                    316690.00000 196534.915  37.9%     -    0s
     0     0 196534.915    0  221 316690.000 196534.915  37.9%     -    0s
H    0     0                    314568.00000 196534.915  37.5%     -    0s
H    0     0                    312724.00000 196534.915  37.2%     -    0s
H    0     0                    280644.00000 196534.915  30.0%     -    0s
     0     0 196995.094    0  228 280644.000 196995.094  29.8%     -    0s
     0     0 196995.133    0  232 280644.000 196995.133  29.8%     -    0s
     0     0 198054.452    0  194 280644.000 198054.452  29.4%     -    0s
     0     0 198256.018    0  247 280644.000 198256.018  29.4%     -    0s
     0     0 198259.010    0  248 280644.000 198259.010  29.4%     -    0s
     0     0 198259.010    0  248 280644.000 198259.010  29.4%     -    0s
     0     0 199368.797    0  279 280644.000 199368.797  29.0%     -    0s
H    0     0                    247640.00000 199368.797  19.5%     -    0s
     0     0 200125.207    0  283 247640.000 200125.207  19.2%     -    1s
     0     0 200178.500    0  296 247640.000 200178.500  19.2%     -    1s
     0     0 200202.056    0  290 247640.000 200202.056  19.2%     -    1s
     0     0 200203.082    0  282 247640.000 200203.082  19.2%     -    1s
     0     0 200778.591    0  286 247640.000 200778.591  18.9%     -    1s
     0     0 201063.508    0  297 247640.000 201063.508  18.8%     -    1s
     0     0 201119.381    0  299 247640.000 201119.381  18.8%     -    1s
     0     0 201127.001    0  308 247640.000 201127.001  18.8%     -    1s
     0     0 201130.219    0  305 247640.000 201130.219  18.8%     -    1s
     0     0 201502.770    0  326 247640.000 201502.770  18.6%     -    1s
H    0     0                    218984.00000 201502.770  7.98%     -    1s
     0     0 201696.471    0  326 218984.000 201696.471  7.89%     -    1s
     0     0 201722.571    0  337 218984.000 201722.571  7.88%     -    1s
     0     0 201729.371    0  344 218984.000 201729.371  7.88%     -    1s
     0     0 201730.414    0  346 218984.000 201730.414  7.88%     -    1s
     0     0 201926.340    0  325 218984.000 201926.340  7.79%     -    1s
     0     0 201957.917    0  321 218984.000 201957.917  7.78%     -    1s
     0     0 201962.251    0  330 218984.000 201962.251  7.77%     -    1s
     0     0 202147.020    0  326 218984.000 202147.020  7.69%     -    1s
     0     0 202211.307    0  337 218984.000 202211.307  7.66%     -    1s
     0     0 202231.152    0  336 218984.000 202231.152  7.65%     -    1s
     0     0 202233.673    0  348 218984.000 202233.673  7.65%     -    1s
     0     0 202398.618    0  326 218984.000 202398.618  7.57%     -    1s
     0     0 202398.618    0  166 218984.000 202398.618  7.57%     -    2s
     0     0 202398.618    0  240 218984.000 202398.618  7.57%     -    2s
     0     0 202398.618    0  288 218984.000 202398.618  7.57%     -    2s
     0     0 202398.618    0  295 218984.000 202398.618  7.57%     -    2s
     0     0 202398.618    0  298 218984.000 202398.618  7.57%     -    2s
     0     0 202409.330    0  312 218984.000 202409.330  7.57%     -    2s
     0     0 202435.073    0  321 218984.000 202435.073  7.56%     -    2s
     0     0 202436.495    0  316 218984.000 202436.495  7.56%     -    2s
     0     0 202591.118    0  322 218984.000 202591.118  7.49%     -    2s
     0     0 202622.072    0  311 218984.000 202622.072  7.47%     -    2s
     0     0 202638.605    0  319 218984.000 202638.605  7.46%     -    2s
     0     0 202638.611    0  314 218984.000 202638.611  7.46%     -    2s
     0     0 202775.644    0  333 218984.000 202775.644  7.40%     -    2s
     0     0 202840.281    0  320 218984.000 202840.281  7.37%     -    2s
     0     0 202861.387    0  324 218984.000 202861.387  7.36%     -    2s
     0     0 202866.064    0  329 218984.000 202866.064  7.36%     -    2s
     0     0 202967.248    0  316 218984.000 202967.248  7.31%     -    2s
     0     0 202972.517    0  325 218984.000 202972.517  7.31%     -    2s
     0     0 202993.476    0  321 218984.000 202993.476  7.30%     -    2s
     0     0 202993.476    0  313 218984.000 202993.476  7.30%     -    2s
     0     2 203007.634    0  307 218984.000 203007.634  7.30%     -    3s
H   31    39                    211124.00000 206131.363  2.36%   709    3s
H   66    59                    210592.00000 206424.918  1.98%   661    4s
H   67    59                    210019.00000 206424.918  1.71%   655    4s
*  100    62              16    208072.00000 206424.918  0.79%   540    4s

Cutting planes:
  Cover: 10
  Clique: 68
  MIR: 108
  StrongCG: 38
  GUB cover: 84
  Zero half: 5
  RLT: 7

Explored 192 nodes (84474 simplex iterations) in 4.42 seconds (7.97 work units)
Thread count was 8 (of 8 available processors)

Solution count 10: 208072 210019 210592 ... 316690

Optimal solution found (tolerance 1.00e-04)
Best objective 2.080720000000e+05, best bound 2.080720000000e+05, gap 0.0000%

Gurobi 9.5.2 (mac64[arm]) logging started Mon May  1 22:43:45 2023

Set parameter LogFile to value "Java/output/special_iterative/scenario_seed_1_nJob_50_machineCount_2/mip_increment_2/log.txt"
Gurobi Optimizer version 9.5.2 build v9.5.2rc0 (mac64[arm])
Thread count: 8 physical cores, 8 logical processors, using up to 8 threads
Optimize a model with 2742 rows, 63756 columns and 734100 nonzeros
Model fingerprint: 0x22dec356
Variable types: 0 continuous, 63756 integer (63756 binary)
Coefficient statistics:
  Matrix range     [1e+00, 2e+02]
  Objective range  [2e+00, 3e+06]
  Bounds range     [1e+00, 1e+00]
  RHS range        [1e+00, 1e+00]

Warning: Completing partial solution with 63602 unfixed non-continuous variables out of 63756
User MIP start produced solution with objective 277614 (0.05s)
Loaded user MIP start with objective 277614

Presolve removed 107 rows and 6723 columns
Presolve time: 0.76s
Presolved: 2635 rows, 57033 columns, 657542 nonzeros
Variable types: 0 continuous, 57033 integer (57029 binary)

Root simplex log...

Iteration    Objective       Primal Inf.    Dual Inf.      Time
   24280    1.8268414e+04   3.073147e+04   0.000000e+00      5s
   40782    1.8858005e+04   1.535802e+03   0.000000e+00     10s
   41317    1.8859147e+04   0.000000e+00   0.000000e+00     10s

Root relaxation: objective 1.885915e+04, 41317 iterations, 9.34 seconds (24.87 work units)

    Nodes    |    Current Node    |     Objective Bounds      |     Work
 Expl Unexpl |  Obj  Depth IntInf | Incumbent    BestBd   Gap | It/Node Time

     0     0 18859.1474    0  615 277614.000 18859.1474  93.2%     -   10s
H    0     0                    269610.00000 18859.1474  93.0%     -   11s
H    0     0                    264929.00000 18921.6537  92.9%     -   16s
     0     0 18921.6537    0  774 264929.000 18921.6537  92.9%     -   16s
H    0     0                    264638.00000 18921.6537  92.8%     -   16s
     0     0 18948.3954    0  780 264638.000 18948.3954  92.8%     -   19s
     0     0 18948.6356    0  816 264638.000 18948.6356  92.8%     -   20s
     0     0 18948.6433    0  814 264638.000 18948.6433  92.8%     -   20s
     0     0 18995.3700    0  886 264638.000 18995.3700  92.8%     -   26s
H    0     0                    261675.00000 18995.3700  92.7%     -   26s
     0     0 19030.7258    0  915 261675.000 19030.7258  92.7%     -   30s
H    0     0                    260978.00000 19037.9973  92.7%     -   32s
H    0     0                    258189.00000 19037.9973  92.6%     -   32s
H    0     0                    252657.00000 19037.9973  92.5%     -   32s
     0     0 19037.9973    0  969 252657.000 19037.9973  92.5%     -   32s
H    0     0                    248603.00000 19038.3311  92.3%     -   33s
     0     0 19038.3311    0  943 248603.000 19038.3311  92.3%     -   33s
     0     0 19039.4565    0  930 248603.000 19039.4565  92.3%     -   33s
     0     0 19039.7518    0  940 248603.000 19039.7518  92.3%     -   34s
     0     0 19039.7708    0  952 248603.000 19039.7708  92.3%     -   34s
H    0     0                    226656.00000 19074.1532  91.6%     -   38s
H    0     0                    225829.00000 19074.1532  91.6%     -   38s
     0     0 19074.1532    0  951 225829.000 19074.1532  91.6%     -   38s
H    0     0                    225793.00000 19074.1532  91.6%     -   38s
H    0     0                    225743.00000 19074.1532  91.6%     -   39s
H    0     0                    225670.00000 19074.1532  91.5%     -   39s
H    0     0                    225438.00000 19085.1030  91.5%     -   42s
     0     0 19085.1030    0  968 225438.000 19085.1030  91.5%     -   42s
     0     0 19096.3533    0 1003 225438.000 19096.3533  91.5%     -   46s
     0     0 19097.2716    0  972 225438.000 19097.2716  91.5%     -   48s
     0     0 19097.2921    0  993 225438.000 19097.2921  91.5%     -   48s
     0     0 19121.0750    0 1017 225438.000 19121.0750  91.5%     -   53s
H    0     0                    225422.00000 19121.0750  91.5%     -   53s
H    0     0                    209071.00000 19121.0750  90.9%     -   53s
     0     0 19137.5912    0  982 209071.000 19137.5912  90.8%     -   57s
H    0     0                    203812.00000 19139.9089  90.6%     -   58s
     0     0 19139.9089    0  967 203812.000 19139.9089  90.6%     -   58s
     0     0 19140.3444    0  981 203812.000 19140.3444  90.6%     -   59s
     0     0 19140.8504    0  984 203812.000 19140.8504  90.6%     -   59s
     0     0 19140.9701    0  983 203812.000 19140.9701  90.6%     -   59s
     0     0 19140.9701    0  985 203812.000 19140.9701  90.6%     -   59s
     0     0 19176.7979    0 1057 203812.000 19176.7979  90.6%     -   63s
H    0     0                    203266.00000 19176.7979  90.6%     -   65s
     0     0 19189.7106    0 1079 203266.000 19189.7106  90.6%     -   69s
     0     0 19192.6016    0 1082 203266.000 19192.6016  90.6%     -   70s
     0     0 19193.0725    0 1089 203266.000 19193.0725  90.6%     -   70s
     0     0 19193.0808    0 1092 203266.000 19193.0808  90.6%     -   70s
     0     0 19211.8952    0 1074 203266.000 19211.8952  90.5%     -   74s
     0     0 19225.7170    0 1111 203266.000 19225.7170  90.5%     -   77s
     0     0 19242.7254    0 1146 203266.000 19242.7254  90.5%     -   81s
     0     0 19244.0118    0 1169 203266.000 19244.0118  90.5%     -   82s
     0     0 19244.0521    0 1170 203266.000 19244.0521  90.5%     -   83s
     0     0 19287.7922    0 1161 203266.000 19287.7922  90.5%     -   88s
     0     0 19296.5923    0 1200 203266.000 19296.5923  90.5%     -  121s
     0     0 19300.0525    0 1226 203266.000 19300.0525  90.5%     -  122s
     0     0 19300.8145    0 1247 203266.000 19300.8145  90.5%     -  123s
     0     0 19301.2517    0 1256 203266.000 19301.2517  90.5%     -  123s
     0     0 19301.3105    0 1252 203266.000 19301.3105  90.5%     -  124s
     0     0 19504.4873    0 1220 203266.000 19504.4873  90.4%     -  132s
H    0     0                    203046.00000 19504.4873  90.4%     -  132s
     0     0 19523.1843    0 1257 203046.000 19523.1843  90.4%     -  137s
     0     0 19525.3433    0 1255 203046.000 19525.3433  90.4%     -  138s
     0     0 19526.7321    0 1293 203046.000 19526.7321  90.4%     -  140s
     0     0 19527.7766    0 1263 203046.000 19527.7766  90.4%     -  141s
     0     0 19528.1979    0 1281 203046.000 19528.1979  90.4%     -  141s
     0     0 19528.2689    0 1274 203046.000 19528.2689  90.4%     -  142s
     0     0 19565.9434    0 1300 203046.000 19565.9434  90.4%     -  149s
     0     0 19573.6580    0 1310 203046.000 19573.6580  90.4%     -  152s
H    0     0                    199830.00000 19577.0435  90.2%     -  153s
     0     0 19577.0435    0 1317 199830.000 19577.0435  90.2%     -  153s
     0     0 19577.2524    0 1311 199830.000 19577.2524  90.2%     -  154s
     0     0 19616.3116    0 1248 199830.000 19616.3116  90.2%     -  160s
H    0     0                    199826.00000 19616.3116  90.2%     -  160s
H    0     0                    196258.00000 19616.3116  90.0%     -  162s
     0     0 19621.1949    0 1284 196258.000 19621.1949  90.0%     -  164s
     0     0 19626.6642    0 1303 196258.000 19626.6642  90.0%     -  166s
     0     0 19627.8802    0 1295 196258.000 19627.8802  90.0%     -  167s
     0     0 19628.2527    0 1301 196258.000 19628.2527  90.0%     -  168s
     0     0 19671.8259    0 1295 196258.000 19671.8259  90.0%     -  175s
H    0     0                    195994.00000 19671.8259  90.0%     -  175s
     0     0 19679.0500    0 1292 195994.000 19679.0500  90.0%     -  178s
     0     0 19683.0505    0 1287 195994.000 19683.0505  90.0%     -  180s
     0     0 19683.6571    0 1322 195994.000 19683.6571  90.0%     -  181s
     0     0 19684.0932    0 1337 195994.000 19684.0932  90.0%     -  182s
     0     0 19710.3828    0 1312 195994.000 19710.3828  89.9%     -  188s
H    0     0                    195846.00000 19710.3828  89.9%     -  189s
     0     0 19719.5664    0 1331 195846.000 19719.5664  89.9%     -  192s
     0     0 19723.6733    0 1332 195846.000 19723.6733  89.9%     -  194s
     0     0 19724.0932    0 1362 195846.000 19724.0932  89.9%     -  195s
     0     0 19765.2880    0 1278 195846.000 19765.2880  89.9%     -  203s
     0     0 19770.9354    0 1301 195846.000 19770.9354  89.9%     -  206s
     0     0 19773.9550    0 1314 195846.000 19773.9550  89.9%     -  208s
     0     0 19774.3600    0 1330 195846.000 19774.3600  89.9%     -  208s
     0     0 19802.9736    0 1289 195846.000 19802.9736  89.9%     -  215s
     0     0 19812.6328    0 1301 195846.000 19812.6328  89.9%     -  218s
     0     0 19816.4525    0 1322 195846.000 19816.4525  89.9%     -  219s
     0     0 19816.9605    0 1310 195846.000 19816.9605  89.9%     -  220s
     0     0 19844.3443    0 1326 195846.000 19844.3443  89.9%     -  224s
H    0     0                    177139.00000 19844.3443  88.8%     -  266s
H    0     0                    131556.00000 19856.7043  84.9%     -  269s
     0     0 19856.7043    0 1385 131556.000 19856.7043  84.9%     -  270s
H    0     0                    116864.00000 19860.0029  83.0%     -  271s
H    0     0                    116848.00000 19860.0029  83.0%     -  271s
     0     0 19860.0029    0 1388 116848.000 19860.0029  83.0%     -  271s
     0     0 19863.0775    0 1408 116848.000 19863.0775  83.0%     -  273s
H    0     0                    114778.00000 19864.3559  82.7%     -  274s
     0     0 19864.3559    0 1423 114778.000 19864.3559  82.7%     -  274s
     0     0 19864.7154    0 1435 114778.000 19864.7154  82.7%     -  275s
H    0     0                    112991.00000 19885.6221  82.4%     -  280s
H    0     0                    110759.00000 19885.6221  82.0%     -  280s
     0     0 19885.6221    0 1448 110759.000 19885.6221  82.0%     -  280s
H    0     0                    110751.00000 19885.6221  82.0%     -  280s
H    0     0                    102434.00000 19885.6221  80.6%     -  281s
     0     0 19894.3548    0 1437 102434.000 19894.3548  80.6%     -  284s
     0     0 19895.1849    0 1445 102434.000 19895.1849  80.6%     -  285s
     0     0 19895.6042    0 1482 102434.000 19895.6042  80.6%     -  286s
     0     0 19904.3974    0 1460 102434.000 19904.3974  80.6%     -  289s
     0     0 19907.2697    0 1497 102434.000 19907.2697  80.6%     -  291s
     0     0 19907.4634    0 1527 102434.000 19907.4634  80.6%     -  292s
     0     0 19934.2360    0 1490 102434.000 19934.2360  80.5%     -  297s
H    0     0                    99391.000000 19934.2360  79.9%     -  297s
     0     0 19936.4025    0 1514 99391.0000 19936.4025  79.9%     -  299s
     0     0 19937.5473    0 1530 99391.0000 19937.5473  79.9%     -  300s
     0     0 19937.8989    0 1537 99391.0000 19937.8989  79.9%     -  301s
     0     0 19944.5369    0 1580 99391.0000 19944.5369  79.9%     -  304s
     0     0 19945.4891    0 1576 99391.0000 19945.4891  79.9%     -  305s
     0     0 19945.6859    0 1572 99391.0000 19945.6859  79.9%     -  305s
     0     0 19951.7370    0 1546 99391.0000 19951.7370  79.9%     -  309s
     0     0 19951.7370    0 1543 99391.0000 19951.7370  79.9%     -  310s
H    0     0                    97324.000000 19951.7370  79.5%     -  351s
     0     0 19951.7370    0  618 97324.0000 19951.7370  79.5%     -  362s
H    0     0                    97288.000000 19951.7370  79.5%     -  363s
     0     0 19951.7370    0  747 97288.0000 19951.7370  79.5%     -  367s
H    0     0                    96612.000000 19951.7370  79.3%     -  367s
     0     0 19951.7370    0  815 96612.0000 19951.7370  79.3%     -  372s
H    0     0                    95995.000000 19951.7370  79.2%     -  378s
     0     0 19951.7370    0  877 95995.0000 19951.7370  79.2%     -  378s
H    0     0                    94779.000000 19951.7370  78.9%     -  383s
H    0     0                    94422.000000 19951.7370  78.9%     -  383s
     0     0 19951.7370    0  913 94422.0000 19951.7370  78.9%     -  383s
     0     0 19951.7370    0 1005 94422.0000 19951.7370  78.9%     -  388s
     0     0 19951.7370    0 1122 94422.0000 19951.7370  78.9%     -  392s
H    0     0                    94345.000000 19951.7370  78.9%     -  396s
     0     0 19951.7370    0 1207 94345.0000 19951.7370  78.9%     -  396s
     0     0 19951.7370    0 1242 94345.0000 19951.7370  78.9%     -  400s
     0     0 19951.7370    0 1312 94345.0000 19951.7370  78.9%     -  404s
     0     0 19951.7370    0 1327 94345.0000 19951.7370  78.9%     -  409s
     0     0 19951.7370    0 1403 94345.0000 19951.7370  78.9%     -  411s
     0     0 19951.7370    0 1467 94345.0000 19951.7370  78.9%     -  415s
     0     0 19954.4424    0 1478 94345.0000 19954.4424  78.8%     -  417s
     0     0 19955.3479    0 1472 94345.0000 19955.3479  78.8%     -  418s
     0     0 19955.8552    0 1495 94345.0000 19955.8552  78.8%     -  418s
     0     0 19955.9277    0 1491 94345.0000 19955.9277  78.8%     -  418s
     0     0 19955.9630    0 1498 94345.0000 19955.9630  78.8%     -  419s
     0     0 19979.4803    0 1474 94345.0000 19979.4803  78.8%     -  424s
H    0     0                    88586.000000 19979.4803  77.4%     -  425s
     0     0 19989.9333    0 1506 88586.0000 19989.9333  77.4%     -  428s
     0     0 19994.8956    0 1528 88586.0000 19994.8956  77.4%     -  430s
     0     0 19995.8384    0 1538 88586.0000 19995.8384  77.4%     -  431s
     0     0 19995.8864    0 1529 88586.0000 19995.8864  77.4%     -  431s
     0     0 20023.5063    0 1482 88586.0000 20023.5063  77.4%     -  437s
H    0     0                    88511.000000 20023.5063  77.4%     -  483s
     0     0 20030.6142    0 1530 88511.0000 20030.6142  77.4%     -  486s
     0     0 20033.6745    0 1551 88511.0000 20033.6745  77.4%     -  488s
     0     0 20035.5210    0 1547 88511.0000 20035.5210  77.4%     -  489s
     0     0 20035.9192    0 1562 88511.0000 20035.9192  77.4%     -  490s
     0     0 20064.3954    0 1499 88511.0000 20064.3954  77.3%     -  496s
H    0     0                    88499.000000 20064.3954  77.3%     -  496s
     0     0 20069.8930    0 1549 88499.0000 20069.8930  77.3%     -  499s
     0     0 20070.8195    0 1546 88499.0000 20070.8195  77.3%     -  500s
H    0     0                    85650.000000 20070.8195  76.6%     -  507s
     0     0 20097.6477    0 1525 85650.0000 20097.6477  76.5%     -  507s
     0     0 20105.8068    0 1571 85650.0000 20105.8068  76.5%     -  510s
     0     0 20111.5392    0 1572 85650.0000 20111.5392  76.5%     -  514s
H    0     0                    85177.000000 20111.5392  76.4%     -  515s
     0     0 20115.7130    0 1537 85177.0000 20115.7130  76.4%     -  515s
     0     0 20116.0853    0 1572 85177.0000 20116.0853  76.4%     -  516s
     0     0 20161.8930    0 1533 85177.0000 20161.8930  76.3%     -  523s
H    0     0                    84812.000000 20161.8930  76.2%     -  524s
H    0     0                    82030.000000 20161.8930  75.4%     -  527s
     0     0 20173.9709    0 1559 82030.0000 20173.9709  75.4%     -  527s
     0     0 20180.0920    0 1575 82030.0000 20180.0920  75.4%     -  530s
     0     0 20183.0966    0 1596 82030.0000 20183.0966  75.4%     -  532s
     0     0 20183.8519    0 1601 82030.0000 20183.8519  75.4%     -  533s
H    0     0                    81624.000000 20183.8519  75.3%     -  538s
H    0     0                    80415.000000 20183.8519  74.9%     -  538s
H    0     0                    80367.000000 20183.8519  74.9%     -  538s
H    0     0                    80311.000000 20183.8519  74.9%     -  538s
     0     0 20204.2924    0 1636 80311.0000 20204.2924  74.8%     -  538s
H    0     0                    79752.000000 20204.2924  74.7%     -  543s
     0     0 20217.3737    0 1641 79752.0000 20217.3737  74.6%     -  543s
     0     0 20226.1633    0 1640 79752.0000 20226.1633  74.6%     -  547s
     0     0 20227.1919    0 1639 79752.0000 20227.1919  74.6%     -  548s
H    0     0                    78439.000000 20227.1919  74.2%     -  553s
     0     0 20240.1200    0 1622 78439.0000 20240.1200  74.2%     -  553s
     0     0 20248.0825    0 1656 78439.0000 20248.0825  74.2%     -  556s
     0     0 20249.7194    0 1650 78439.0000 20249.7194  74.2%     -  558s
     0     0 20250.0523    0 1663 78439.0000 20250.0523  74.2%     -  559s
     0     0 20269.4612    0 1638 78439.0000 20269.4612  74.2%     -  565s
     0     0 20275.9057    0 1677 78439.0000 20275.9057  74.2%     -  568s
     0     0 20278.0918    0 1683 78439.0000 20278.0918  74.1%     -  570s
     0     0 20278.5885    0 1701 78439.0000 20278.5885  74.1%     -  570s
     0     0 20289.8924    0 1687 78439.0000 20289.8924  74.1%     -  575s
     0     0 20294.1015    0 1712 78439.0000 20294.1015  74.1%     -  578s
     0     0 20295.1077    0 1702 78439.0000 20295.1077  74.1%     -  579s
     0     0          -    0      78439.0000 20295.1077  74.1%     -  582s

Cutting planes:
  Cover: 1
  Clique: 217
  MIR: 332
  StrongCG: 179
  GUB cover: 378

Explored 1 nodes (635494 simplex iterations) in 582.01 seconds (1460.38 work units)
Thread count was 8 (of 8 available processors)

Solution count 10: 78439 79752 80311 ... 85650

Time limit reached
Best objective 7.843900000000e+04, best bound 2.029600000000e+04, gap 74.1251%
